p edge 305 304 131
e 1 28
e 2 85
e 2 156
e 3 100
e 3 5
e 4 72
e 5 93
e 5 178
e 6 183
e 6 50
e 6 58
e 7 68
e 8 48
e 9 109
e 9 261
e 9 259
e 10 220
e 10 156
e 11 35
e 11 123
e 11 104
e 11 83
e 12 185
e 12 18
e 13 28
e 14 235
e 14 178
e 15 301
e 15 36
e 16 157
e 16 194
e 17 149
e 17 263
e 17 239
e 18 143
e 18 58
e 18 260
e 19 142
e 19 124
e 19 103
e 20 117
e 20 108
e 20 134
e 21 56
e 21 160
e 22 197
e 23 90
e 24 110
e 25 38
e 25 273
e 26 241
e 27 284
e 28 45
e 28 85
e 29 165
e 29 282
e 29 186
e 30 47
e 30 270
e 31 259
e 31 94
e 32 217
e 32 70
e 33 276
e 33 204
e 34 86
e 34 279
e 36 147
e 36 206
e 36 161
e 36 222
e 36 305
e 37 272
e 37 173
e 38 268
e 39 303
e 40 123
e 41 73
e 41 148
e 41 171
e 42 210
e 42 246
e 43 162
e 43 159
e 44 154
e 44 255
e 46 158
e 46 204
e 48 175
e 49 108
e 50 83
e 50 254
e 50 234
e 51 217
e 52 262
e 53 84
e 54 221
e 55 266
e 56 164
e 57 72
e 57 203
e 57 280
e 58 249
e 59 236
e 59 226
e 60 204
e 61 208
e 61 110
e 62 160
e 62 288
e 62 128
e 63 298
e 63 108
e 64 99
e 65 228
e 66 231
e 66 289
e 67 274
e 68 115
e 68 140
e 68 121
e 69 266
e 69 146
e 70 132
e 70 216
e 70 303
e 71 215
e 73 122
e 74 175
e 74 132
e 75 112
e 75 125
e 75 118
e 75 116
e 76 205
e 76 283
e 76 202
e 76 304
e 76 193
e 77 166
e 77 287
e 78 153
e 78 215
e 78 225
e 78 195
e 79 224
e 80 228
e 81 106
e 81 262
e 82 287
e 82 214
e 82 206
e 84 303
e 84 157
e 85 192
e 86 209
e 86 227
e 87 296
e 87 136
e 88 255
e 88 238
e 89 129
e 89 240
e 89 204
e 89 269
e 90 186
e 91 189
e 92 200
e 92 125
e 93 150
e 94 135
e 94 166
e 95 106
e 96 199
e 96 253
e 97 200
e 98 248
e 98 273
e 98 186
e 99 107
e 99 173
e 99 252
e 101 187
e 102 265
e 102 283
e 103 127
e 104 244
e 105 235
e 106 221
e 106 245
e 109 144
e 110 139
e 110 242
e 110 167
e 111 177
e 113 295
e 114 163
e 116 277
e 117 171
e 118 247
e 118 233
e 119 238
e 119 166
e 120 215
e 121 302
e 122 179
e 124 300
e 124 302
e 125 169
e 126 236
e 127 159
e 127 138
e 128 148
e 130 190
e 131 257
e 133 242
e 134 223
e 134 229
e 136 176
e 137 194
e 137 263
e 138 232
e 138 193
e 138 222
e 141 169
e 144 167
e 145 281
e 146 249
e 151 266
e 152 253
e 152 279
e 153 201
e 155 190
e 155 297
e 156 229
e 156 214
e 159 226
e 159 269
e 161 252
e 162 237
e 163 302
e 164 286
e 166 290
e 166 292
e 168 228
e 168 197
e 170 224
e 170 258
e 170 293
e 171 293
e 172 274
e 172 233
e 173 191
e 174 304
e 176 193
e 177 277
e 177 212
e 178 243
e 178 297
e 179 246
e 180 270
e 180 286
e 181 297
e 182 287
e 184 239
e 185 284
e 186 278
e 186 237
e 187 195
e 188 211
e 189 195
e 189 230
e 189 289
e 196 239
e 196 250
e 197 203
e 198 292
e 202 294
e 207 218
e 207 221
e 211 219
e 211 300
e 212 267
e 213 233
e 217 275
e 229 281
e 229 285
e 230 297
e 232 295
e 234 267
e 238 289
e 241 257
e 241 280
e 241 302
e 250 272
e 251 287
e 253 271
e 256 274
e 260 305
e 262 286
e 264 276
e 279 286
e 282 299
e 291 302
